100
1000
168
168
167
166
166
166
165
165
164
164
164
163
163
163
162
162
161
160
160
159
158
158
158
157
156
156
156
155
155
152
152
152
151
151
149
148
148
148
148
147
147
145
145
145
144
143
143
143
143
143
143
140
140
139
138
138
137
137
136
136
136
135
134
133
132
132
132
132
131
131
131
130
130
130
130
130
129
127
126
124
124
124
122
122
122
122
121
121
121
121
120
120
119
118
117
117
116
116
115
114
